(set-logic QF_FP)
(set-info :smt-lib-version 2.0)
(set-info :category "crafted")
(set-info :source |Alberto Griggio <griggio@fbk.eu>. These benchmarks were used for the evaluation in the following paper: L. Haller, A. Griggio, M. Brain, D. Kroening: Deciding floating-point logic with systematic abstraction. FMCAD 2012. Real-numbered literals have been automatically translated by MathSAT|)
(set-info :status unknown)
;; MathSAT API call trace
;; generated on 05/20/15 17:24:53

(declare-fun |c::main::1::IN!0@1#0| () (_ FloatingPoint 8 24))
(define-fun _t_3 () RoundingMode RNE)
(define-fun _t_9 () (_ FloatingPoint 8 24) |c::main::1::IN!0@1#0|)
(define-fun _t_11 () (_ FloatingPoint 8 24) (fp #b0 #b01111111 #b00000000000000000000000))
(define-fun _t_12 () Bool (fp.lt _t_9 _t_11))
(define-fun _t_14 () (_ FloatingPoint 8 24) (fp #b1 #b01111111 #b00000000000000000000000))
(define-fun _t_15 () Bool (fp.lt _t_14 _t_9))
(define-fun _t_16 () Bool (and _t_12 _t_15))
(define-fun _t_17 () (_ FloatingPoint 8 24) (fp.mul _t_3 _t_9 _t_9))
(define-fun _t_19 () (_ FloatingPoint 8 24) (fp #b0 #b10000000 #b00000000000000000000000))
(define-fun _t_20 () (_ FloatingPoint 8 24) (fp.div _t_3 _t_17 _t_19))
(define-fun _t_21 () (_ FloatingPoint 8 24) (fp.neg _t_20))
(define-fun _t_22 () (_ FloatingPoint 8 24) (fp.add _t_3 _t_11 _t_21))
(define-fun _t_23 () (_ FloatingPoint 8 24) (fp.mul _t_3 _t_9 _t_17))
(define-fun _t_24 () (_ FloatingPoint 8 24) (fp.mul _t_3 _t_9 _t_23))
(define-fun _t_26 () (_ FloatingPoint 8 24) (fp #b0 #b10000011 #b10000000000000000000000))
(define-fun _t_27 () (_ FloatingPoint 8 24) (fp.div _t_3 _t_24 _t_26))
(define-fun _t_28 () (_ FloatingPoint 8 24) (fp.add _t_3 _t_22 _t_27))
(define-fun _t_29 () (_ FloatingPoint 8 24) (fp.mul _t_3 _t_9 _t_24))
(define-fun _t_30 () (_ FloatingPoint 8 24) (fp.mul _t_3 _t_9 _t_29))
(define-fun _t_32 () (_ FloatingPoint 8 24) (fp #b0 #b10001000 #b01101000000000000000000))
(define-fun _t_33 () (_ FloatingPoint 8 24) (fp.div _t_3 _t_30 _t_32))
(define-fun _t_34 () (_ FloatingPoint 8 24) (fp.add _t_3 _t_28 _t_33))
(define-fun _t_36 () (_ FloatingPoint 8 24) (fp #b0 #b10000001 #b10000000000000000000000))
(define-fun _t_37 () (_ FloatingPoint 8 24) (fp.div _t_3 _t_23 _t_36))
(define-fun _t_38 () (_ FloatingPoint 8 24) (fp.neg _t_37))
(define-fun _t_39 () (_ FloatingPoint 8 24) (fp.add _t_3 _t_9 _t_38))
(define-fun _t_41 () (_ FloatingPoint 8 24) (fp #b0 #b10000101 #b11100000000000000000000))
(define-fun _t_42 () (_ FloatingPoint 8 24) (fp.div _t_3 _t_29 _t_41))
(define-fun _t_43 () (_ FloatingPoint 8 24) (fp.add _t_3 _t_39 _t_42))
(define-fun _t_44 () (_ FloatingPoint 8 24) (fp.mul _t_3 _t_9 _t_30))
(define-fun _t_46 () (_ FloatingPoint 8 24) (fp #b0 #b10001011 #b00111011000000000000000))
(define-fun _t_47 () (_ FloatingPoint 8 24) (fp.div _t_3 _t_44 _t_46))
(define-fun _t_48 () (_ FloatingPoint 8 24) (fp.add _t_3 _t_43 _t_47))
(define-fun _t_49 () (_ FloatingPoint 8 24) (fp.div _t_3 _t_48 _t_34))
(define-fun _t_50 () (_ FloatingPoint 8 24) (fp.neg _t_49))
(define-fun _t_51 () (_ FloatingPoint 8 24) (fp.add _t_3 _t_9 _t_50))
(define-fun _t_52 () (_ FloatingPoint 8 24) (fp.mul _t_3 _t_51 _t_51))
(define-fun _t_53 () (_ FloatingPoint 8 24) (fp.div _t_3 _t_52 _t_19))
(define-fun _t_54 () (_ FloatingPoint 8 24) (fp.neg _t_53))
(define-fun _t_55 () (_ FloatingPoint 8 24) (fp.add _t_3 _t_11 _t_54))
(define-fun _t_56 () (_ FloatingPoint 8 24) (fp.mul _t_3 _t_51 _t_52))
(define-fun _t_57 () (_ FloatingPoint 8 24) (fp.mul _t_3 _t_51 _t_56))
(define-fun _t_58 () (_ FloatingPoint 8 24) (fp.div _t_3 _t_57 _t_26))
(define-fun _t_59 () (_ FloatingPoint 8 24) (fp.add _t_3 _t_55 _t_58))
(define-fun _t_60 () (_ FloatingPoint 8 24) (fp.mul _t_3 _t_51 _t_57))
(define-fun _t_61 () (_ FloatingPoint 8 24) (fp.mul _t_3 _t_51 _t_60))
(define-fun _t_62 () (_ FloatingPoint 8 24) (fp.div _t_3 _t_61 _t_32))
(define-fun _t_63 () (_ FloatingPoint 8 24) (fp.add _t_3 _t_59 _t_62))
(define-fun _t_64 () (_ FloatingPoint 8 24) (fp.div _t_3 _t_56 _t_36))
(define-fun _t_65 () (_ FloatingPoint 8 24) (fp.neg _t_64))
(define-fun _t_66 () (_ FloatingPoint 8 24) (fp.add _t_3 _t_51 _t_65))
(define-fun _t_67 () (_ FloatingPoint 8 24) (fp.div _t_3 _t_60 _t_41))
(define-fun _t_68 () (_ FloatingPoint 8 24) (fp.add _t_3 _t_66 _t_67))
(define-fun _t_69 () (_ FloatingPoint 8 24) (fp.mul _t_3 _t_51 _t_61))
(define-fun _t_70 () (_ FloatingPoint 8 24) (fp.div _t_3 _t_69 _t_46))
(define-fun _t_71 () (_ FloatingPoint 8 24) (fp.add _t_3 _t_68 _t_70))
(define-fun _t_72 () (_ FloatingPoint 8 24) (fp.div _t_3 _t_71 _t_63))
(define-fun _t_73 () (_ FloatingPoint 8 24) (fp.neg _t_72))
(define-fun _t_74 () (_ FloatingPoint 8 24) (fp.add _t_3 _t_51 _t_73))
(define-fun _t_75 () (_ FloatingPoint 8 24) (fp.mul _t_3 _t_74 _t_74))
(define-fun _t_76 () (_ FloatingPoint 8 24) (fp.div _t_3 _t_75 _t_19))
(define-fun _t_77 () (_ FloatingPoint 8 24) (fp.neg _t_76))
(define-fun _t_78 () (_ FloatingPoint 8 24) (fp.add _t_3 _t_11 _t_77))
(define-fun _t_79 () (_ FloatingPoint 8 24) (fp.mul _t_3 _t_74 _t_75))
(define-fun _t_80 () (_ FloatingPoint 8 24) (fp.mul _t_3 _t_74 _t_79))
(define-fun _t_81 () (_ FloatingPoint 8 24) (fp.div _t_3 _t_80 _t_26))
(define-fun _t_82 () (_ FloatingPoint 8 24) (fp.add _t_3 _t_78 _t_81))
(define-fun _t_83 () (_ FloatingPoint 8 24) (fp.mul _t_3 _t_74 _t_80))
(define-fun _t_84 () (_ FloatingPoint 8 24) (fp.mul _t_3 _t_74 _t_83))
(define-fun _t_85 () (_ FloatingPoint 8 24) (fp.div _t_3 _t_84 _t_32))
(define-fun _t_86 () (_ FloatingPoint 8 24) (fp.add _t_3 _t_82 _t_85))
(define-fun _t_87 () (_ FloatingPoint 8 24) (fp.div _t_3 _t_79 _t_36))
(define-fun _t_88 () (_ FloatingPoint 8 24) (fp.neg _t_87))
(define-fun _t_89 () (_ FloatingPoint 8 24) (fp.add _t_3 _t_74 _t_88))
(define-fun _t_90 () (_ FloatingPoint 8 24) (fp.div _t_3 _t_83 _t_41))
(define-fun _t_91 () (_ FloatingPoint 8 24) (fp.add _t_3 _t_89 _t_90))
(define-fun _t_92 () (_ FloatingPoint 8 24) (fp.mul _t_3 _t_74 _t_84))
(define-fun _t_93 () (_ FloatingPoint 8 24) (fp.div _t_3 _t_92 _t_46))
(define-fun _t_94 () (_ FloatingPoint 8 24) (fp.add _t_3 _t_91 _t_93))
(define-fun _t_95 () (_ FloatingPoint 8 24) (fp.div _t_3 _t_94 _t_86))
(define-fun _t_96 () (_ FloatingPoint 8 24) (fp.neg _t_95))
(define-fun _t_97 () (_ FloatingPoint 8 24) (fp.add _t_3 _t_74 _t_96))
(define-fun _t_98 () (_ FloatingPoint 11 53) ((_ to_fp 11 53) _t_3 _t_97))
(define-fun _t_100 () (_ FloatingPoint 11 53) (fp #b0 #b01111111011 #b1001100110011001100110011001100110011001100110011001))
(define-fun _t_101 () Bool (fp.lt _t_98 _t_100))
(define-fun _t_102 () Bool (not _t_101))
(define-fun _t_103 () Bool (and _t_16 _t_102))
(assert _t_103)
(check-sat)
